\ENCODING=ISO-8859-1
\Problem name: IloCplex

Maximize
 obj: 398 vnp2#0 - 18576 pi0_k7#1 + 944 vnp3#4 + 803 vnp7#9 + 1166 vnp10#13
      + 813 vnp12#19 + 292 vnp13#23 + 712 vnp15#27 + 667 vnp16#33
      + 410 vnp18#38 + 433 vnp19#42 + 1506 vnp20#46 - 97 pi1_k7#53
      - 112 pi2_k7#54 - 121 pi3_k7#55 - 103 pi4_k7#56
Subject To
 _Embedding_constraing_of_vlink_7_vnp_2#0: vnp2#0 - pi0_k7#1 <= 0
 _Embedding_constraing_of_vlink_8_vnp_2#1: vnp2#0 - pi16_k8#2 <= 0
 _Embedding_constraing_of_vlink_9_vnp_2#2: vnp2#0 - pi17_k9#3 <= 0
 _Embedding_constraing_of_vlink_10_vnp_3#3: vnp3#4 - pi30_k10#5 <= 0
 _Embedding_constraing_of_vlink_11_vnp_3#4: vnp3#4 - pi31_k11#6 <= 0
 _Embedding_constraing_of_vlink_12_vnp_3#5: vnp3#4 - pi45_k12#7 <= 0
 _Embedding_constraing_of_vlink_13_vnp_3#6: vnp3#4 - pi60_k13#8 <= 0
 _Embedding_constraing_of_vlink_25_vnp_7#7: vnp7#9 - pi70_k25#10 <= 0
 _Embedding_constraing_of_vlink_26_vnp_7#8: vnp7#9 - pi91_k26#11 <= 0
 _Embedding_constraing_of_vlink_27_vnp_7#9: vnp7#9 - pi92_k27#12 <= 0
 _Embedding_constraing_of_vlink_36_vnp_10#10: vnp10#13 - pi109_k36#14 <= 0
 _Embedding_constraing_of_vlink_37_vnp_10#11: vnp10#13 - pi119_k37#15 <= 0
 _Embedding_constraing_of_vlink_38_vnp_10#12: vnp10#13 - pi136_k38#16 <= 0
 _Embedding_constraing_of_vlink_39_vnp_10#13: vnp10#13 - pi152_k39#17 <= 0
 _Embedding_constraing_of_vlink_40_vnp_10#14: vnp10#13 - pi153_k40#18 <= 0
 _Embedding_constraing_of_vlink_47_vnp_12#15: vnp12#19 - pi170_k47#20 <= 0
 _Embedding_constraing_of_vlink_48_vnp_12#16: vnp12#19 - pi185_k48#21 <= 0
 _Embedding_constraing_of_vlink_49_vnp_12#17: vnp12#19 - pi186_k49#22 <= 0
 _Embedding_constraing_of_vlink_50_vnp_13#18: vnp13#23 - pi197_k50#24 <= 0
 _Embedding_constraing_of_vlink_51_vnp_13#19: vnp13#23 - pi212_k51#25 <= 0
 _Embedding_constraing_of_vlink_52_vnp_13#20: vnp13#23 - pi224_k52#26 <= 0
 _Embedding_constraing_of_vlink_57_vnp_15#21: vnp15#27 - pi245_k57#28 <= 0
 _Embedding_constraing_of_vlink_58_vnp_15#22: vnp15#27 - pi246_k58#29 <= 0
 _Embedding_constraing_of_vlink_59_vnp_15#23: vnp15#27 - pi257_k59#30 <= 0
 _Embedding_constraing_of_vlink_60_vnp_15#24: vnp15#27 - pi273_k60#31 <= 0
 _Embedding_constraing_of_vlink_61_vnp_15#25: vnp15#27 - pi295_k61#32 <= 0
 _Embedding_constraing_of_vlink_62_vnp_16#26: vnp16#33 - pi310_k62#34 <= 0
 _Embedding_constraing_of_vlink_63_vnp_16#27: vnp16#33 - pi321_k63#35 <= 0
 _Embedding_constraing_of_vlink_64_vnp_16#28: vnp16#33 - pi337_k64#36 <= 0
 _Embedding_constraing_of_vlink_65_vnp_16#29: vnp16#33 - pi352_k65#37 <= 0
 _Embedding_constraing_of_vlink_70_vnp_18#30: vnp18#38 - pi353_k70#39 <= 0
 _Embedding_constraing_of_vlink_71_vnp_18#31: vnp18#38 - pi355_k71#40 <= 0
 _Embedding_constraing_of_vlink_72_vnp_18#32: vnp18#38 - pi357_k72#41 <= 0
 _Embedding_constraing_of_vlink_73_vnp_19#33: vnp19#42 - pi358_k73#43 <= 0
 _Embedding_constraing_of_vlink_74_vnp_19#34: vnp19#42 - pi359_k74#44 <= 0
 _Embedding_constraing_of_vlink_75_vnp_19#35: vnp19#42 - pi362_k75#45 <= 0
 _Embedding_constraing_of_vlink_76_vnp_20#36: vnp20#46 - pi375_k76#47 <= 0
 _Embedding_constraing_of_vlink_77_vnp_20#37: vnp20#46 - pi391_k77#48 <= 0
 _Embedding_constraing_of_vlink_78_vnp_20#38: vnp20#46 - pi412_k78#49 <= 0
 _Embedding_constraing_of_vlink_79_vnp_20#39: vnp20#46 - pi426_k79#50 <= 0
 _Embedding_constraing_of_vlink_80_vnp_20#40: vnp20#46 - pi445_k80#51 <= 0
 _Embedding_constraing_of_vlink_81_vnp_20#41: vnp20#46 - pi454_k81#52 <= 0
 c43#42:                         - 398 vnp2#0 + 18576 pi0_k7#1 - 944 vnp3#4
                                 - 803 vnp7#9 - 1166 vnp10#13 - 813 vnp12#19
                                 - 292 vnp13#23 - 712 vnp15#27 - 667 vnp16#33
                                 - 410 vnp18#38 - 433 vnp19#42 - 1506 vnp20#46
                                 + 97 pi1_k7#53 + 112 pi2_k7#54 + 121 pi3_k7#55
                                 + 103 pi4_k7#56 <= 0
Bounds
 0 <= vnp2#0 <= 1
 0 <= pi0_k7#1 <= 1
 0 <= pi16_k8#2 <= 1
 0 <= pi17_k9#3 <= 1
 0 <= vnp3#4 <= 1
 0 <= pi30_k10#5 <= 1
 0 <= pi31_k11#6 <= 1
 0 <= pi45_k12#7 <= 1
 0 <= pi60_k13#8 <= 1
 0 <= vnp7#9 <= 1
 0 <= pi70_k25#10 <= 1
 0 <= pi91_k26#11 <= 1
 0 <= pi92_k27#12 <= 1
 0 <= vnp10#13 <= 1
 0 <= pi109_k36#14 <= 1
 0 <= pi119_k37#15 <= 1
 0 <= pi136_k38#16 <= 1
 0 <= pi152_k39#17 <= 1
 0 <= pi153_k40#18 <= 1
 0 <= vnp12#19 <= 1
 0 <= pi170_k47#20 <= 1
 0 <= pi185_k48#21 <= 1
 0 <= pi186_k49#22 <= 1
 0 <= vnp13#23 <= 1
 0 <= pi197_k50#24 <= 1
 0 <= pi212_k51#25 <= 1
 0 <= pi224_k52#26 <= 1
 0 <= vnp15#27 <= 1
 0 <= pi245_k57#28 <= 1
 0 <= pi246_k58#29 <= 1
 0 <= pi257_k59#30 <= 1
 0 <= pi273_k60#31 <= 1
 0 <= pi295_k61#32 <= 1
 0 <= vnp16#33 <= 1
 0 <= pi310_k62#34 <= 1
 0 <= pi321_k63#35 <= 1
 0 <= pi337_k64#36 <= 1
 0 <= pi352_k65#37 <= 1
 0 <= vnp18#38 <= 1
 0 <= pi353_k70#39 <= 1
 0 <= pi355_k71#40 <= 1
 0 <= pi357_k72#41 <= 1
 0 <= vnp19#42 <= 1
 0 <= pi358_k73#43 <= 1
 0 <= pi359_k74#44 <= 1
 0 <= pi362_k75#45 <= 1
 0 <= vnp20#46 <= 1
 0 <= pi375_k76#47 <= 1
 0 <= pi391_k77#48 <= 1
 0 <= pi412_k78#49 <= 1
 0 <= pi426_k79#50 <= 1
 0 <= pi445_k80#51 <= 1
 0 <= pi454_k81#52 <= 1
 0 <= pi1_k7#53 <= 1
 0 <= pi2_k7#54 <= 1
 0 <= pi3_k7#55 <= 1
 0 <= pi4_k7#56 <= 1
Binaries
 vnp2#0  pi0_k7#1  pi16_k8#2  pi17_k9#3  vnp3#4  pi30_k10#5  pi31_k11#6 
 pi45_k12#7  pi60_k13#8  vnp7#9  pi70_k25#10  pi91_k26#11  pi92_k27#12 
 vnp10#13  pi109_k36#14  pi119_k37#15  pi136_k38#16  pi152_k39#17 
 pi153_k40#18  vnp12#19  pi170_k47#20  pi185_k48#21  pi186_k49#22  vnp13#23 
 pi197_k50#24  pi212_k51#25  pi224_k52#26  vnp15#27  pi245_k57#28 
 pi246_k58#29  pi257_k59#30  pi273_k60#31  pi295_k61#32  vnp16#33 
 pi310_k62#34  pi321_k63#35  pi337_k64#36  pi352_k65#37  vnp18#38 
 pi353_k70#39  pi355_k71#40  pi357_k72#41  vnp19#42  pi358_k73#43 
 pi359_k74#44  pi362_k75#45  vnp20#46  pi375_k76#47  pi391_k77#48 
 pi412_k78#49  pi426_k79#50  pi445_k80#51  pi454_k81#52  pi1_k7#53  pi2_k7#54 
 pi3_k7#55  pi4_k7#56 
End
